1239.0
1108.0
1168.0
1110.0
1132.0
1140.0
1261.0
1103.0
1133.0
1174.0
1204.0
1142.0
1136.0
1252.0
1159.0
1032.0
1114.0
1177.0
1139.0
1144.0
1155.0
1068.0
1075.0
1008.0
1073.0
1144.0
1067.0
1142.0
1157.0
1083.0
